# UC-ac

units          real
atom_style     full
boundary       p p p

pair_style     lj/class2/coul/long 15.0 15.0
pair_modify    mix sixthpower
atom_modify     map array
dielectric     1.0
special_bonds  lj 0.000000 0.000000 1.000000 coul 0.000000 0.000000 1.000000
bond_style     class2
angle_style    class2
dihedral_style class2
improper_style class2

read_data      UC-ac.data

python         post_force_callback here """
from lammps import lammps
from narupa.lammps import LammpsHook
h = LammpsHook()

def post_force_callback(lmp,v):
  h.lammps_hook(lmp)
"""
fix     3 all python/invoke 1 post_force post_force_callback

kspace_style   pppm 0.0001
pair_modify    tail yes
group          mobile union all
dump           1 all atom 100 UC-ac.dump
dump_modify    1 scale no image yes
dump           2 all custom 100 UC-ac.frcdump id fx fy fz
thermo_style   custom etotal ke pe ebond eangle edihed eimp evdwl ecoul elong etail enthalpy temp press pxx pxy pxz pyy pyz pzz vol lx ly lz xy xz yz
thermo_modify  line multi
thermo         100
thermo_modify  flush yes
restart        100 UC-ac1.rst UC-ac2.rst
min_style      cg
minimize       0.0001 0.000001 5000 5000
write_restart  UC-ac.rst
